(set-info :origin "SVCOMP13 benchmarks generated by Arie Gurfinkel")
(set-info :status unsat)
(set-logic HORN)
(declare-fun cp-rel-bb1.i.i23.i.i () Bool)
(declare-fun cp-rel-entry () Bool)
(declare-fun cp-rel-bb1.i.i (Real Real Real Real) Bool)
(assert |cp-rel-entry|)
(assert (forall ((?A Real) (?B Real) (?C Real) (?D Real) (?E Bool) )(let (($x865598 (and |cp-rel-entry| (<= ?D 0.0) (>= ?C 1.0) (<= ?C 1.0) (>= ?B 1.0) (<= ?B 1.0) (>= ?A 0.0) (<= ?A 0.0) (= ?E true) (>= ?D 0.0))))
(=> $x865598 (|cp-rel-bb1.i.i| ?A ?B ?C ?D))))
)
(assert (forall ((?A Real) (?B Real) (?C Real) (?D Real) (?E Real) (?F Real) (?G Real) (?H Real) (?I Bool) (?J Bool) (?K Bool) (?L Bool) (?M Bool) (?N Bool) (?O Real) (?P Real) (?Q Bool) (?R Bool) (?S Bool) (?T Bool) (?U Bool) (?V Bool) (?W Real) (?X Real) (?Y Bool) (?Z Bool) (?A1 Bool) (?B1 Bool) (?C1 Bool) (?D1 Bool) (?E1 Bool) (?F1 Bool) (?G1 Bool) (?H1 Bool) (?I1 Bool) (?J1 Bool) (?K1 Bool) (?L1 Real) (?M1 Real) (?N1 Bool) (?O1 Bool) (?P1 Bool) (?Q1 Bool) (?R1 Bool) (?S1 Bool) (?T1 Bool) (?U1 Bool) (?V1 Bool) (?W1 Bool) (?X1 Bool) (?Y1 Bool) (?Z1 Bool) (?A2 Real) (?B2 Real) (?C2 Real) (?D2 Real) (?E2 Bool) (?F2 Bool) (?G2 Bool) (?H2 Bool) (?I2 Bool) (?J2 Real) (?K2 Bool) (?L2 Real) (?M2 Real) (?N2 Bool) (?O2 Real) (?P2 Real) (?Q2 Bool) (?R2 Real) (?S2 Bool) (?T2 Bool) (?U2 Bool) )(let (($x573139 (|cp-rel-bb1.i.i| ?E ?F ?G ?H)))
(let (($x506818 (= ?I2 (or ?U2 ?T2))))
(let (($x95655 (or (not ?I) (and ?J ?K (not ?L)))))
(let (($x583990 (or (not ?I) ?K)))
(let (($x284963 (not ?M)))
(let (($x344660 (or $x284963 (and ?I ?N (<= ?O ?P) (>= ?O ?P)) (and ?J ?Q ?L (<= ?O ?B) (>= ?O ?B)))))
(let (($x54810 (or $x284963 (and ?N (not ?Q)) (and ?Q (not ?N)))))
(let (($x170181 (or (not ?R) (and ?M ?S (not ?T)))))
(let (($x539954 (or (not ?R) ?S)))
(let (($x864696 (not ?U)))
(let (($x553090 (or $x864696 (and ?R ?V (<= ?W ?X) (>= ?W ?X)) (and ?M ?Y ?T (<= ?W ?A) (>= ?W ?A)))))
(let (($x113963 (or $x864696 (and ?V (not ?Y)) (and ?Y (not ?V)))))
(let (($x22211 (or (not ?Z) (and ?U ?A1 ?B1))))
(let (($x860221 (or (not ?Z) ?A1)))
(let (($x248455 (or (not ?C1) (and ?Z ?D1 ?E1) (and ?U ?F1 (not ?B1)))))
(let (($x319777 (or (not ?C1) (and ?D1 (not ?F1)) (and ?F1 (not ?D1)))))
(let (($x204472 (or (not ?G1) (and ?C1 ?H1 (not ?I1)))))
(let (($x599299 (or (not ?G1) ?H1)))
(let (($x872869 (or (not ?J1) (and ?G1 ?K1 (<= ?L1 ?M1) (>= ?L1 ?M1)) (and ?C1 ?N1 ?I1 (<= ?L1 ?O) (>= ?L1 ?O)))))
(let (($x541127 (or (not ?J1) (and ?K1 (not ?N1)) (and ?N1 (not ?K1)))))
(let (($x279536 (or (not ?O1) (and ?J1 ?P1 (not ?Q1)))))
(let (($x607376 (or (not ?O1) ?P1)))
(let (($x278039 (or (not ?R1) (and ?O1 ?S1 ?I1))))
(let (($x460177 (or (not ?R1) ?S1)))
(let (($x693931 (or (not ?T1) (and ?O1 ?U1 (not ?I1)))))
(let (($x757394 (or (not ?T1) ?U1)))
(let (($x298360 (or (not ?V1) (and ?T1 ?W1 ?X1))))
(let (($x339895 (or (not ?V1) ?W1)))
(let (($x192321 (>= ?C2 0.0)))
(let (($x368938 (<= ?C2 0.0)))
(let (($x866142 (and ?Z ?H2 (not ?E1) (<= ?A2 0.0) (>= ?A2 0.0) (<= ?B2 ?O) (>= ?B2 ?O) $x368938 $x192321)))
(let (($x323101 (>= ?B2 ?L1)))
(let (($x845781 (<= ?B2 ?L1)))
(let (($x325891 (>= ?A2 ?C)))
(let (($x277325 (<= ?A2 ?C)))
(let (($x486329 (and ?J1 ?G2 ?Q1 $x277325 $x325891 $x845781 $x323101 (<= ?C2 ?D) (>= ?C2 ?D))))
(let (($x278462 (not ?Y1)))
(let (($x113697 (or $x278462 (and ?R1 ?Z1 $x277325 $x325891 $x845781 $x323101 (<= ?C2 ?D2) (>= ?C2 ?D2)) (and ?V1 ?E2 $x277325 $x325891 $x845781 $x323101 (<= ?C2 ?D) (>= ?C2 ?D)) (and ?T1 ?F2 (not ?X1) $x277325 $x325891 $x845781 $x323101 $x368938 $x192321) $x486329 $x866142)))
(let (($x626609 (or $x278462 (and ?Z1 (not ?E2) (not ?F2) (not ?G2) (not ?H2)) (and ?E2 (not ?Z1) (not ?F2) (not ?G2) (not ?H2)) (and ?F2 (not ?Z1) (not ?E2) (not ?G2) (not ?H2)) (and ?G2 (not ?Z1) (not ?E2) (not ?F2) (not ?H2)) (and ?H2 (not ?Z1) (not ?E2) (not ?F2) (not ?G2)))))
(let (($x156269 (= ?Y1 true)))
(let (($x251034 (= ?I2 true)))
(let (($x100587 (= ?L (= ?J2 0.0))))
(let (($x274159 (= ?L2 (ite ?K2 1.0 0.0))))
(let (($x349626 (= ?T (= ?M2 0.0))))
(let (($x623796 (= ?X (ite ?N2 1.0 0.0))))
(let (($x563478 (= ?B1 (= ?O2 0.0))))
(let (($x302907 (= ?E1 (= ?P2 0.0))))
(let (($x481674 (= ?Q2 (not (<= ?O 0.0)))))
(let (($x65835 (= ?R2 (+ (~ 1.0) ?O))))
(let (($x129787 (= ?M1 (ite ?Q2 ?R2 ?O))))
(let (($x394794 (= ?S2 (not (<= ?L1 1.0)))))
(let (($x287172 (= ?X1 (= ?W 0.0))))
(let (($x835385 (= ?T2 (not (= ?B2 0.0)))))
(let (($x227626 (= ?U2 (= ?C2 0.0))))
(let (($x866011 (and (|cp-rel-bb1.i.i| ?A ?B ?C ?D) $x227626 $x835385 $x287172 (= ?D2 (ite ?S2 1.0 ?D)) $x394794 (= ?Q1 (= ?C 0.0)) $x129787 $x65835 $x481674 (= ?I1 (= ?D 0.0)) $x302907 $x563478 $x623796 (= ?N2 (= ?A 0.0)) $x349626 (= ?P (+ ?L2 ?B)) $x274159 (= ?K2 (not (<= 2.0 ?B))) $x100587 (>= ?H ?C2) (<= ?H ?C2) (>= ?G ?A2) (<= ?G ?A2) (>= ?F ?B2) (<= ?F ?B2) (>= ?E ?W) (<= ?E ?W) $x251034 $x156269 $x626609 $x113697 $x339895 $x298360 $x757394 $x693931 $x460177 $x278039 $x607376 $x279536 $x541127 $x872869 $x599299 $x204472 $x319777 $x248455 $x860221 $x22211 $x113963 $x553090 $x539954 $x170181 $x54810 $x344660 $x583990 $x95655 $x506818)))
(=> $x866011 $x573139)))))))))))))))))))))))))))))))))))))))))))))))))))))))))
)
(assert (forall ((?A Real) (?B Real) (?C Real) (?D Real) (?E Bool) (?F Bool) (?G Bool) (?H Bool) (?I Bool) (?J Bool) (?K Real) (?L Real) (?M Bool) (?N Bool) (?O Bool) (?P Bool) (?Q Bool) (?R Bool) (?S Real) (?T Real) (?U Bool) (?V Bool) (?W Bool) (?X Bool) (?Y Bool) (?Z Bool) (?A1 Bool) (?B1 Bool) (?C1 Bool) (?D1 Bool) (?E1 Bool) (?F1 Bool) (?G1 Bool) (?H1 Real) (?I1 Real) (?J1 Bool) (?K1 Bool) (?L1 Bool) (?M1 Bool) (?N1 Bool) (?O1 Bool) (?P1 Bool) (?Q1 Bool) (?R1 Bool) (?S1 Bool) (?T1 Bool) (?U1 Bool) (?V1 Bool) (?W1 Real) (?X1 Real) (?Y1 Real) (?Z1 Real) (?A2 Bool) (?B2 Bool) (?C2 Bool) (?D2 Bool) (?E2 Bool) (?F2 Real) (?G2 Bool) (?H2 Real) (?I2 Real) (?J2 Bool) (?K2 Real) (?L2 Real) (?M2 Bool) (?N2 Real) (?O2 Bool) (?P2 Bool) (?Q2 Bool) )(let (($x506818 (= ?E2 (or ?Q2 ?P2))))
(let (($x95655 (or (not ?E) (and ?F ?G (not ?H)))))
(let (($x583990 (or (not ?E) ?G)))
(let (($x284963 (not ?I)))
(let (($x251537 (or $x284963 (and ?E ?J (<= ?K ?L) (>= ?K ?L)) (and ?F ?M ?H (<= ?K ?B) (>= ?K ?B)))))
(let (($x54810 (or $x284963 (and ?J (not ?M)) (and ?M (not ?J)))))
(let (($x170181 (or (not ?N) (and ?I ?O (not ?P)))))
(let (($x539954 (or (not ?N) ?O)))
(let (($x864696 (not ?Q)))
(let (($x212891 (or $x864696 (and ?N ?R (<= ?S ?T) (>= ?S ?T)) (and ?I ?U ?P (<= ?S ?A) (>= ?S ?A)))))
(let (($x113963 (or $x864696 (and ?R (not ?U)) (and ?U (not ?R)))))
(let (($x22211 (or (not ?V) (and ?Q ?W ?X))))
(let (($x860221 (or (not ?V) ?W)))
(let (($x248455 (or (not ?Y) (and ?V ?Z ?A1) (and ?Q ?B1 (not ?X)))))
(let (($x319777 (or (not ?Y) (and ?Z (not ?B1)) (and ?B1 (not ?Z)))))
(let (($x204472 (or (not ?C1) (and ?Y ?D1 (not ?E1)))))
(let (($x599299 (or (not ?C1) ?D1)))
(let (($x872869 (or (not ?F1) (and ?C1 ?G1 (<= ?H1 ?I1) (>= ?H1 ?I1)) (and ?Y ?J1 ?E1 (<= ?H1 ?K) (>= ?H1 ?K)))))
(let (($x541127 (or (not ?F1) (and ?G1 (not ?J1)) (and ?J1 (not ?G1)))))
(let (($x279536 (or (not ?K1) (and ?F1 ?L1 (not ?M1)))))
(let (($x607376 (or (not ?K1) ?L1)))
(let (($x278039 (or (not ?N1) (and ?K1 ?O1 ?E1))))
(let (($x460177 (or (not ?N1) ?O1)))
(let (($x693931 (or (not ?P1) (and ?K1 ?Q1 (not ?E1)))))
(let (($x757394 (or (not ?P1) ?Q1)))
(let (($x298360 (or (not ?R1) (and ?P1 ?S1 ?T1))))
(let (($x339895 (or (not ?R1) ?S1)))
(let (($x192321 (>= ?Y1 0.0)))
(let (($x368938 (<= ?Y1 0.0)))
(let (($x866142 (and ?V ?D2 (not ?A1) (<= ?W1 0.0) (>= ?W1 0.0) (<= ?X1 ?K) (>= ?X1 ?K) $x368938 $x192321)))
(let (($x323101 (>= ?X1 ?H1)))
(let (($x845781 (<= ?X1 ?H1)))
(let (($x851891 (>= ?W1 ?C)))
(let (($x521381 (<= ?W1 ?C)))
(let (($x317853 (and ?F1 ?C2 ?M1 $x521381 $x851891 $x845781 $x323101 (<= ?Y1 ?D) (>= ?Y1 ?D))))
(let (($x278462 (not ?U1)))
(let (($x329288 (or $x278462 (and ?N1 ?V1 $x521381 $x851891 $x845781 $x323101 (<= ?Y1 ?Z1) (>= ?Y1 ?Z1)) (and ?R1 ?A2 $x521381 $x851891 $x845781 $x323101 (<= ?Y1 ?D) (>= ?Y1 ?D)) (and ?P1 ?B2 (not ?T1) $x521381 $x851891 $x845781 $x323101 $x368938 $x192321) $x317853 $x866142)))
(let (($x626609 (or $x278462 (and ?V1 (not ?A2) (not ?B2) (not ?C2) (not ?D2)) (and ?A2 (not ?V1) (not ?B2) (not ?C2) (not ?D2)) (and ?B2 (not ?V1) (not ?A2) (not ?C2) (not ?D2)) (and ?C2 (not ?V1) (not ?A2) (not ?B2) (not ?D2)) (and ?D2 (not ?V1) (not ?A2) (not ?B2) (not ?C2)))))
(let (($x156269 (= ?U1 true)))
(let (($x100587 (= ?H (= ?F2 0.0))))
(let (($x274159 (= ?H2 (ite ?G2 1.0 0.0))))
(let (($x349626 (= ?P (= ?I2 0.0))))
(let (($x623796 (= ?T (ite ?J2 1.0 0.0))))
(let (($x563478 (= ?X (= ?K2 0.0))))
(let (($x302907 (= ?A1 (= ?L2 0.0))))
(let (($x481674 (= ?M2 (not (<= ?K 0.0)))))
(let (($x65835 (= ?N2 (+ (~ 1.0) ?K))))
(let (($x129787 (= ?I1 (ite ?M2 ?N2 ?K))))
(let (($x394794 (= ?O2 (not (<= ?H1 1.0)))))
(let (($x287172 (= ?T1 (= ?S 0.0))))
(let (($x835385 (= ?P2 (not (= ?X1 0.0)))))
(let (($x227626 (= ?Q2 (= ?Y1 0.0))))
(let (($x573139 (|cp-rel-bb1.i.i| ?A ?B ?C ?D)))
(let (($x58780 (and $x573139 $x227626 $x835385 $x287172 (= ?Z1 (ite ?O2 1.0 ?D)) $x394794 (= ?M1 (= ?C 0.0)) $x129787 $x65835 $x481674 (= ?E1 (= ?D 0.0)) $x302907 $x563478 $x623796 (= ?J2 (= ?A 0.0)) $x349626 (= ?L (+ ?H2 ?B)) $x274159 (= ?G2 (not (<= 2.0 ?B))) $x100587 (not (= ?E2 true)) $x156269 $x626609 $x329288 $x339895 $x298360 $x757394 $x693931 $x460177 $x278039 $x607376 $x279536 $x541127 $x872869 $x599299 $x204472 $x319777 $x248455 $x860221 $x22211 $x113963 $x212891 $x539954 $x170181 $x54810 $x251537 $x583990 $x95655 $x506818)))
(=> $x58780 |cp-rel-bb1.i.i23.i.i|))))))))))))))))))))))))))))))))))))))))))))))))))))))))
)
(assert (not cp-rel-bb1.i.i23.i.i))
(check-sat)
